Ac Ag                                   
   1.00000000000000     
     0.0000000000000000    3.1415380000000002    3.1415380000000002
     3.1415380000000002    0.0000000000000000    3.1415380000000002
     3.1415380000000002    3.1415380000000002    0.0000000000000000
   Ac   Ag
     1     1
Direct
  0.0000000000000000  0.0000000000000000  0.0000000000000000
  0.5000003844999981  0.5000003844999981  0.5000003844999981
 
  0.00000000E+00  0.00000000E+00  0.00000000E+00
  0.00000000E+00  0.00000000E+00  0.00000000E+00
