Ac Ag
 1.0
0.000000 3.141538 3.141538
3.141538 0.000000 3.141538
3.141538 3.141538 0.000000
Ac Ag
1 1
direct
 0.0000000000 0.0000000000 0.0000000000
 0.5000003845 0.5000003845 0.5000003845
