Ac Ag
 1.0
0.000000 3.008713 3.008713
3.008713 0.000000 3.008713
3.008713 3.008713 0.000000
Ac Ag
1 1
direct
 0.0000000000 0.0000000000 0.0000000000
 0.5000000000 0.5000000000 0.5000000000
