Ac Ag                                   
   1.00000000000000     
     0.0000000000000000    3.2595490716977040    3.2595490716977040
     3.2595490716977040    0.0000000000000000    3.2595490716977040
     3.2595490716977040    3.2595490716977040    0.0000000000000000
   Ac   Ag
     1     1
Direct
  0.0000000000000000  0.0000000000000000  0.0000000000000000
  0.5000010023999977  0.5000010023999977  0.5000010023999977
 
  0.00000000E+00  0.00000000E+00  0.00000000E+00
  0.00000000E+00  0.00000000E+00  0.00000000E+00
