Ac Ag
 1.0
0.000000 3.239654 3.239654
3.239654 0.000000 3.239654
3.239654 3.239654 0.000000
Ac Ag
1 1
direct
 0.0000000000 0.0000000000 0.0000000000
 0.5000010024 0.5000010024 0.5000010024
